NAME lp_typeD_890
OBJSENSE MAX
ROWS
 N  OBJ
 L  c0      
 L  c1      
 L  c2      
 G  c3      
 G  c4      
 G  c5      
 L  c_key_upper
 G  c_key_lower
 G  _chain_constr_1
 G  _chain_constr_2
 G  _chain_constr_3
 G  _chain_cycle
COLUMNS
    x0        OBJ       8.1393037118796474e-01
    x0        c0        1.1690902217708865e+00
    x0        c1        1.1727323400812053e+00
    x0        c2        1.6761290722102478e+00
    x0        c3        1.8394476054754187e+00
    x0        c4        1.0808752414153913e+00
    x0        c5        1.8495721296403527e+00
    x0        c_key_upper  1.5407963006329732e+00
    x0        c_key_lower  1.5407963006329732e+00
    x1        OBJ       7.4047321282119494e-01
    x1        c0        1.7128048915782366e+00
    x1        c1        1.8828010349014026e+00
    x1        c2        1.3168566025968889e+00
    x1        c3        1.2305666149615546e+00
    x1        c4        6.0824471019144255e-01
    x1        c5        1.4570863744214524e+00
    x1        c_key_upper  1.5621069353179369e+00
    x1        c_key_lower  1.5621069353179369e+00
    x2        OBJ       1.0461503129428682e+00
    x2        c0        1.1306679974332787e+00
    x2        c1        1.1006090553372061e+00
    x2        c2        1.0181494486563716e+00
    x2        c3        5.3916123836581231e-01
    x2        c4        1.3956017871564004e+00
    x2        c5        1.4108898517813353e+00
    x2        c_key_upper  1.7460247934525688e+00
    x2        c_key_lower  1.7460247934525688e+00
    x3        OBJ       1.2415767164786489e+00
    x3        c0        9.4685822786192519e-01
    x3        c1        1.2170435100063535e+00
    x3        c2        9.6612852998216869e-01
    x3        c3        7.7419310036969780e-01
    x3        c4        1.6375302011111608e+00
    x3        c5        1.2745019810017448e+00
    x3        c_key_upper  1.7794001315546770e+00
    x3        c_key_lower  1.7794001315546770e+00
    x4        OBJ       1.2292602418723009e+00
    x4        c0        9.5213556098771568e-01
    x4        c1        1.2251373883072305e+00
    x4        c2        1.3108684763462835e+00
    x4        c3        8.4493804009436446e-01
    x4        c4        1.5776696669548214e+00
    x4        c5        6.2937149347000632e-01
    x4        c_key_upper  1.6166631547053165e+00
    x4        c_key_lower  1.6166631547053165e+00
    _chain_var_0  _chain_constr_1  -1
    _chain_var_0  _chain_cycle  1
    _chain_var_1  _chain_constr_1  1
    _chain_var_1  _chain_constr_2  -1
    _chain_var_2  _chain_constr_2  1
    _chain_var_2  _chain_constr_3  -1
    _chain_var_3  _chain_constr_3  1
    _chain_var_3  _chain_cycle  -1
RHS
    RHS1      c0        3.0487346408002306e+01
    RHS1      c1        3.0966387642651181e+01
    RHS1      c2        2.9812075003886392e+01
    RHS1      c3        6.1724980883871368e+00
    RHS1      c4        9.7982667969057342e+00
    RHS1      c5        7.4438702955481508e+00
    RHS1      c_key_upper  4.1224956578317361e+01
    RHS1      c_key_lower  2.0612478289158680e+01
    RHS1      _chain_constr_1  10
    RHS1      _chain_constr_2  10
    RHS1      _chain_constr_3  10
    RHS1      _chain_cycle  10
BOUNDS
 UP BND1      x0        10
 UP BND1      x1        10
 UP BND1      x2        10
 UP BND1      x3        10
 UP BND1      x4        10
 UP BND1      _chain_var_0  100
 UP BND1      _chain_var_1  100
 UP BND1      _chain_var_2  100
 UP BND1      _chain_var_3  100
ENDATA
